c Generated map
c Size: 30 * 30, weights in range: 1 to 10, walls: True, with ratio 0.1
c dim 3 of 3
c
p sp 900 1410
c graph contains 900 nodes and 1410 arcs
c
a 1 31 10
a 31 1 10
a 1 2 6
a 2 1 6
a 2 32 10
a 32 2 10
a 2 3 9
a 3 2 9
a 3 33 7
a 33 3 7
a 3 4 4
a 4 3 4
a 4 34 3
a 34 4 3
a 4 5 3
a 5 4 3
a 5 35 5
a 35 5 5
a 5 6 6
a 6 5 6
a 6 36 1
a 36 6 1
a 6 7 8
a 7 6 8
a 7 37 5
a 37 7 5
a 7 8 7
a 8 7 7
a 8 38 9
a 38 8 9
a 8 9 2
a 9 8 2
a 9 39 5
a 39 9 5
a 9 10 6
a 10 9 6
a 10 40 5
a 40 10 5
a 10 11 4
a 11 10 4
a 11 12 9
a 12 11 9
a 12 42 6
a 42 12 6
a 14 44 9
a 44 14 9
a 16 46 3
a 46 16 3
a 16 17 5
a 17 16 5
a 17 47 1
a 47 17 1
a 17 18 9
a 18 17 9
a 18 48 4
a 48 18 4
a 18 19 6
a 19 18 6
a 19 20 2
a 20 19 2
a 20 50 3
a 50 20 3
a 20 21 1
a 21 20 1
a 21 51 2
a 51 21 2
a 21 22 9
a 22 21 9
a 22 52 5
a 52 22 5
a 22 23 4
a 23 22 4
a 23 53 10
a 53 23 10
a 23 24 8
a 24 23 8
a 24 54 5
a 54 24 5
a 24 25 9
a 25 24 9
a 25 55 4
a 55 25 4
a 25 26 7
a 26 25 7
a 26 56 1
a 56 26 1
a 26 27 1
a 27 26 1
a 27 28 2
a 28 27 2
a 28 58 1
a 58 28 1
a 28 29 9
a 29 28 9
a 29 59 8
a 59 29 8
a 29 30 8
a 30 29 8
a 30 60 8
a 60 30 8
a 31 61 8
a 61 31 8
a 31 32 6
a 32 31 6
a 32 62 7
a 62 32 7
a 32 33 10
a 33 32 10
a 33 63 8
a 63 33 8
a 33 34 6
a 34 33 6
a 34 64 3
a 64 34 3
a 34 35 9
a 35 34 9
a 35 65 8
a 65 35 8
a 35 36 4
a 36 35 4
a 36 66 6
a 66 36 6
a 36 37 3
a 37 36 3
a 37 67 1
a 67 37 1
a 37 38 4
a 38 37 4
a 38 68 2
a 68 38 2
a 38 39 2
a 39 38 2
a 39 40 10
a 40 39 10
a 42 72 7
a 72 42 7
a 42 43 3
a 43 42 3
a 43 73 4
a 73 43 4
a 43 44 10
a 44 43 10
a 44 45 1
a 45 44 1
a 45 75 3
a 75 45 3
a 45 46 8
a 46 45 8
a 46 76 9
a 76 46 9
a 46 47 1
a 47 46 1
a 47 77 4
a 77 47 4
a 47 48 5
a 48 47 5
a 48 78 5
a 78 48 5
a 50 80 5
a 80 50 5
a 50 51 2
a 51 50 2
a 51 81 7
a 81 51 7
a 51 52 4
a 52 51 4
a 52 53 4
a 53 52 4
a 53 83 4
a 83 53 4
a 53 54 9
a 54 53 9
a 54 84 3
a 84 54 3
a 54 55 4
a 55 54 4
a 55 85 5
a 85 55 5
a 55 56 1
a 56 55 1
a 56 86 3
a 86 56 3
a 58 88 9
a 88 58 9
a 58 59 5
a 59 58 5
a 59 89 2
a 89 59 2
a 59 60 4
a 60 59 4
a 60 90 6
a 90 60 6
a 61 91 10
a 91 61 10
a 61 62 9
a 62 61 9
a 62 92 4
a 92 62 4
a 62 63 8
a 63 62 8
a 63 93 3
a 93 63 3
a 63 64 1
a 64 63 1
a 64 94 2
a 94 64 2
a 64 65 5
a 65 64 5
a 65 95 9
a 95 65 9
a 65 66 5
a 66 65 5
a 66 96 5
a 96 66 5
a 66 67 3
a 67 66 3
a 67 97 7
a 97 67 7
a 67 68 4
a 68 67 4
a 68 98 7
a 98 68 7
a 71 101 8
a 101 71 8
a 71 72 4
a 72 71 4
a 72 102 10
a 102 72 10
a 72 73 5
a 73 72 5
a 73 103 6
a 103 73 6
a 75 105 1
a 105 75 1
a 75 76 3
a 76 75 3
a 76 106 4
a 106 76 4
a 76 77 6
a 77 76 6
a 77 107 10
a 107 77 10
a 77 78 10
a 78 77 10
a 78 108 7
a 108 78 7
a 78 79 3
a 79 78 3
a 79 109 8
a 109 79 8
a 79 80 6
a 80 79 6
a 80 110 6
a 110 80 6
a 80 81 1
a 81 80 1
a 81 111 3
a 111 81 3
a 83 113 6
a 113 83 6
a 83 84 9
a 84 83 9
a 84 114 3
a 114 84 3
a 84 85 2
a 85 84 2
a 85 115 7
a 115 85 7
a 85 86 6
a 86 85 6
a 86 116 7
a 116 86 7
a 86 87 10
a 87 86 10
a 87 117 6
a 117 87 6
a 87 88 7
a 88 87 7
a 88 118 7
a 118 88 7
a 88 89 3
a 89 88 3
a 89 119 8
a 119 89 8
a 89 90 5
a 90 89 5
a 91 121 3
a 121 91 3
a 91 92 3
a 92 91 3
a 92 122 9
a 122 92 9
a 92 93 5
a 93 92 5
a 93 123 3
a 123 93 3
a 93 94 1
a 94 93 1
a 94 124 6
a 124 94 6
a 94 95 6
a 95 94 6
a 95 125 4
a 125 95 4
a 95 96 9
a 96 95 9
a 96 126 5
a 126 96 5
a 96 97 9
a 97 96 9
a 97 127 5
a 127 97 5
a 97 98 5
a 98 97 5
a 98 128 8
a 128 98 8
a 98 99 9
a 99 98 9
a 99 129 7
a 129 99 7
a 101 131 2
a 131 101 2
a 101 102 8
a 102 101 8
a 102 132 4
a 132 102 4
a 102 103 7
a 103 102 7
a 103 133 4
a 133 103 4
a 103 104 5
a 104 103 5
a 104 105 1
a 105 104 1
a 105 135 9
a 135 105 9
a 105 106 5
a 106 105 5
a 106 136 3
a 136 106 3
a 106 107 6
a 107 106 6
a 107 137 10
a 137 107 10
a 107 108 5
a 108 107 5
a 108 138 8
a 138 108 8
a 108 109 4
a 109 108 4
a 109 110 6
a 110 109 6
a 110 140 6
a 140 110 6
a 110 111 4
a 111 110 4
a 111 141 7
a 141 111 7
a 111 112 6
a 112 111 6
a 112 142 3
a 142 112 3
a 112 113 2
a 113 112 2
a 113 143 1
a 143 113 1
a 113 114 10
a 114 113 10
a 114 144 7
a 144 114 7
a 114 115 5
a 115 114 5
a 115 145 6
a 145 115 6
a 115 116 10
a 116 115 10
a 116 146 1
a 146 116 1
a 116 117 8
a 117 116 8
a 117 147 6
a 147 117 6
a 117 118 10
a 118 117 10
a 118 148 1
a 148 118 1
a 118 119 6
a 119 118 6
a 119 149 7
a 149 119 7
a 121 151 2
a 151 121 2
a 121 122 1
a 122 121 1
a 122 152 2
a 152 122 2
a 122 123 2
a 123 122 2
a 123 124 7
a 124 123 7
a 124 154 8
a 154 124 8
a 124 125 7
a 125 124 7
a 125 155 6
a 155 125 6
a 125 126 9
a 126 125 9
a 126 156 3
a 156 126 3
a 126 127 6
a 127 126 6
a 127 157 9
a 157 127 9
a 127 128 3
a 128 127 3
a 128 158 5
a 158 128 5
a 128 129 9
a 129 128 9
a 129 159 5
a 159 129 5
a 129 130 4
a 130 129 4
a 130 160 5
a 160 130 5
a 130 131 9
a 131 130 9
a 131 161 6
a 161 131 6
a 131 132 6
a 132 131 6
a 132 162 5
a 162 132 5
a 132 133 6
a 133 132 6
a 135 136 9
a 136 135 9
a 136 166 6
a 166 136 6
a 136 137 10
a 137 136 10
a 137 167 6
a 167 137 6
a 137 138 5
a 138 137 5
a 138 168 5
a 168 138 5
a 140 170 2
a 170 140 2
a 140 141 2
a 141 140 2
a 141 171 3
a 171 141 3
a 141 142 3
a 142 141 3
a 142 172 2
a 172 142 2
a 142 143 4
a 143 142 4
a 143 173 4
a 173 143 4
a 143 144 3
a 144 143 3
a 144 174 8
a 174 144 8
a 144 145 4
a 145 144 4
a 145 175 7
a 175 145 7
a 145 146 2
a 146 145 2
a 146 176 5
a 176 146 5
a 146 147 7
a 147 146 7
a 147 177 3
a 177 147 3
a 147 148 2
a 148 147 2
a 148 178 4
a 178 148 4
a 148 149 9
a 149 148 9
a 149 179 4
a 179 149 4
a 149 150 6
a 150 149 6
a 151 181 3
a 181 151 3
a 151 152 3
a 152 151 3
a 152 182 10
a 182 152 10
a 154 184 4
a 184 154 4
a 154 155 2
a 155 154 2
a 155 185 3
a 185 155 3
a 155 156 8
a 156 155 8
a 156 186 2
a 186 156 2
a 156 157 8
a 157 156 8
a 157 187 2
a 187 157 2
a 157 158 10
a 158 157 10
a 158 188 9
a 188 158 9
a 158 159 4
a 159 158 4
a 159 189 1
a 189 159 1
a 159 160 7
a 160 159 7
a 160 161 4
a 161 160 4
a 161 191 3
a 191 161 3
a 161 162 10
a 162 161 10
a 162 192 6
a 192 162 6
a 166 196 5
a 196 166 5
a 166 167 9
a 167 166 9
a 167 197 5
a 197 167 5
a 167 168 8
a 168 167 8
a 168 198 7
a 198 168 7
a 168 169 10
a 169 168 10
a 169 199 4
a 199 169 4
a 169 170 9
a 170 169 9
a 170 200 2
a 200 170 2
a 170 171 4
a 171 170 4
a 171 201 9
a 201 171 9
a 171 172 5
a 172 171 5
a 172 173 7
a 173 172 7
a 173 203 4
a 203 173 4
a 173 174 8
a 174 173 8
a 174 204 5
a 204 174 5
a 174 175 9
a 175 174 9
a 175 205 3
a 205 175 3
a 175 176 6
a 176 175 6
a 176 206 7
a 206 176 7
a 176 177 7
a 177 176 7
a 177 207 4
a 207 177 4
a 177 178 9
a 178 177 9
a 178 208 2
a 208 178 2
a 178 179 2
a 179 178 2
a 179 209 4
a 209 179 4
a 181 211 6
a 211 181 6
a 181 182 8
a 182 181 8
a 182 212 3
a 212 182 3
a 184 214 6
a 214 184 6
a 184 185 9
a 185 184 9
a 185 215 2
a 215 185 2
a 185 186 5
a 186 185 5
a 186 187 1
a 187 186 1
a 187 217 8
a 217 187 8
a 187 188 10
a 188 187 10
a 188 218 2
a 218 188 2
a 188 189 1
a 189 188 1
a 191 221 2
a 221 191 2
a 191 192 3
a 192 191 3
a 192 222 4
a 222 192 4
a 192 193 5
a 193 192 5
a 193 223 7
a 223 193 7
a 195 196 9
a 196 195 9
a 196 226 8
a 226 196 8
a 196 197 7
a 197 196 7
a 197 227 6
a 227 197 6
a 197 198 5
a 198 197 5
a 198 228 6
a 228 198 6
a 198 199 3
a 199 198 3
a 199 229 10
a 229 199 10
a 199 200 4
a 200 199 4
a 200 230 6
a 230 200 6
a 200 201 10
a 201 200 10
a 201 231 1
a 231 201 1
a 203 204 7
a 204 203 7
a 204 234 2
a 234 204 2
a 204 205 3
a 205 204 3
a 205 235 9
a 235 205 9
a 205 206 5
a 206 205 5
a 206 236 7
a 236 206 7
a 206 207 4
a 207 206 4
a 207 237 1
a 237 207 1
a 207 208 6
a 208 207 6
a 208 209 10
a 209 208 10
a 209 239 8
a 239 209 8
a 209 210 10
a 210 209 10
a 211 212 8
a 212 211 8
a 212 242 6
a 242 212 6
a 214 244 1
a 244 214 1
a 214 215 8
a 215 214 8
a 215 245 6
a 245 215 6
a 217 247 4
a 247 217 4
a 217 218 8
a 218 217 8
a 218 248 2
a 248 218 2
a 221 251 4
a 251 221 4
a 221 222 4
a 222 221 4
a 222 252 3
a 252 222 3
a 222 223 2
a 223 222 2
a 223 253 9
a 253 223 9
a 223 224 10
a 224 223 10
a 224 254 3
a 254 224 3
a 226 256 5
a 256 226 5
a 226 227 2
a 227 226 2
a 227 257 6
a 257 227 6
a 227 228 3
a 228 227 3
a 228 258 10
a 258 228 10
a 228 229 8
a 229 228 8
a 229 230 1
a 230 229 1
a 230 260 4
a 260 230 4
a 230 231 10
a 231 230 10
a 231 261 4
a 261 231 4
a 231 232 5
a 232 231 5
a 232 262 2
a 262 232 2
a 234 264 9
a 264 234 9
a 234 235 2
a 235 234 2
a 235 236 3
a 236 235 3
a 236 266 10
a 266 236 10
a 236 237 6
a 237 236 6
a 237 267 8
a 267 237 8
a 239 269 2
a 269 239 2
a 242 272 3
a 272 242 3
a 242 243 4
a 243 242 4
a 243 273 7
a 273 243 7
a 243 244 4
a 244 243 4
a 244 274 5
a 274 244 5
a 244 245 3
a 245 244 3
a 245 275 6
a 275 245 6
a 245 246 3
a 246 245 3
a 246 276 9
a 276 246 9
a 246 247 4
a 247 246 4
a 247 277 6
a 277 247 6
a 247 248 4
a 248 247 4
a 248 278 5
a 278 248 5
a 248 249 10
a 249 248 10
a 249 279 5
a 279 249 5
a 249 250 2
a 250 249 2
a 250 280 10
a 280 250 10
a 250 251 5
a 251 250 5
a 251 281 5
a 281 251 5
a 251 252 8
a 252 251 8
a 252 282 8
a 282 252 8
a 252 253 4
a 253 252 4
a 253 283 1
a 283 253 1
a 253 254 3
a 254 253 3
a 254 284 8
a 284 254 8
a 254 255 9
a 255 254 9
a 255 285 8
a 285 255 8
a 255 256 2
a 256 255 2
a 256 286 10
a 286 256 10
a 256 257 5
a 257 256 5
a 257 287 7
a 287 257 7
a 257 258 10
a 258 257 10
a 258 288 9
a 288 258 9
a 260 290 9
a 290 260 9
a 260 261 9
a 261 260 9
a 261 291 9
a 291 261 9
a 261 262 7
a 262 261 7
a 262 292 5
a 292 262 5
a 262 263 9
a 263 262 9
a 263 264 1
a 264 263 1
a 264 294 3
a 294 264 3
a 266 296 3
a 296 266 3
a 266 267 7
a 267 266 7
a 267 297 6
a 297 267 6
a 267 268 1
a 268 267 1
a 268 298 9
a 298 268 9
a 268 269 4
a 269 268 4
a 269 270 1
a 270 269 1
a 270 300 8
a 300 270 8
a 271 301 4
a 301 271 4
a 271 272 3
a 272 271 3
a 272 302 4
a 302 272 4
a 272 273 2
a 273 272 2
a 273 303 7
a 303 273 7
a 273 274 10
a 274 273 10
a 274 304 3
a 304 274 3
a 274 275 3
a 275 274 3
a 275 305 6
a 305 275 6
a 275 276 8
a 276 275 8
a 276 306 5
a 306 276 5
a 276 277 2
a 277 276 2
a 277 307 9
a 307 277 9
a 277 278 5
a 278 277 5
a 278 308 6
a 308 278 6
a 278 279 6
a 279 278 6
a 279 309 2
a 309 279 2
a 279 280 2
a 280 279 2
a 280 310 4
a 310 280 4
a 280 281 9
a 281 280 9
a 281 311 9
a 311 281 9
a 281 282 1
a 282 281 1
a 282 312 4
a 312 282 4
a 282 283 10
a 283 282 10
a 283 313 1
a 313 283 1
a 283 284 6
a 284 283 6
a 284 314 5
a 314 284 5
a 284 285 3
a 285 284 3
a 285 315 7
a 315 285 7
a 285 286 1
a 286 285 1
a 286 287 3
a 287 286 3
a 287 317 4
a 317 287 4
a 287 288 10
a 288 287 10
a 288 318 5
a 318 288 5
a 288 289 6
a 289 288 6
a 289 319 6
a 319 289 6
a 289 290 10
a 290 289 10
a 290 320 5
a 320 290 5
a 290 291 10
a 291 290 10
a 291 321 9
a 321 291 9
a 291 292 9
a 292 291 9
a 292 322 5
a 322 292 5
a 294 324 4
a 324 294 4
a 294 295 6
a 295 294 6
a 295 325 1
a 325 295 1
a 295 296 4
a 296 295 4
a 296 326 7
a 326 296 7
a 296 297 6
a 297 296 6
a 297 327 3
a 327 297 3
a 297 298 9
a 298 297 9
a 298 328 7
a 328 298 7
a 300 330 7
a 330 300 7
a 301 331 5
a 331 301 5
a 301 302 8
a 302 301 8
a 302 332 2
a 332 302 2
a 302 303 3
a 303 302 3
a 303 333 7
a 333 303 7
a 303 304 8
a 304 303 8
a 304 334 1
a 334 304 1
a 304 305 10
a 305 304 10
a 305 335 8
a 335 305 8
a 305 306 2
a 306 305 2
a 306 336 7
a 336 306 7
a 306 307 5
a 307 306 5
a 307 337 5
a 337 307 5
a 307 308 8
a 308 307 8
a 308 338 1
a 338 308 1
a 308 309 6
a 309 308 6
a 309 339 2
a 339 309 2
a 309 310 3
a 310 309 3
a 310 340 1
a 340 310 1
a 310 311 2
a 311 310 2
a 311 341 2
a 341 311 2
a 311 312 5
a 312 311 5
a 312 342 3
a 342 312 3
a 312 313 8
a 313 312 8
a 313 343 10
a 343 313 10
a 313 314 7
a 314 313 7
a 314 344 9
a 344 314 9
a 314 315 4
a 315 314 4
a 315 345 9
a 345 315 9
a 317 347 3
a 347 317 3
a 317 318 3
a 318 317 3
a 318 348 2
a 348 318 2
a 318 319 10
a 319 318 10
a 319 349 4
a 349 319 4
a 319 320 6
a 320 319 6
a 320 350 4
a 350 320 4
a 320 321 10
a 321 320 10
a 321 351 10
a 351 321 10
a 321 322 5
a 322 321 5
a 322 352 3
a 352 322 3
a 322 323 1
a 323 322 1
a 323 324 6
a 324 323 6
a 324 354 5
a 354 324 5
a 324 325 9
a 325 324 9
a 325 355 7
a 355 325 7
a 325 326 4
a 326 325 4
a 326 356 8
a 356 326 8
a 326 327 3
a 327 326 3
a 327 357 10
a 357 327 10
a 327 328 6
a 328 327 6
a 328 358 2
a 358 328 2
a 328 329 9
a 329 328 9
a 329 359 4
a 359 329 4
a 329 330 6
a 330 329 6
a 330 360 10
a 360 330 10
a 331 361 9
a 361 331 9
a 331 332 10
a 332 331 10
a 332 362 2
a 362 332 2
a 332 333 9
a 333 332 9
a 333 363 9
a 363 333 9
a 333 334 3
a 334 333 3
a 334 364 10
a 364 334 10
a 334 335 7
a 335 334 7
a 335 365 2
a 365 335 2
a 335 336 9
a 336 335 9
a 336 366 8
a 366 336 8
a 336 337 7
a 337 336 7
a 337 367 3
a 367 337 3
a 337 338 6
a 338 337 6
a 338 368 8
a 368 338 8
a 338 339 5
a 339 338 5
a 339 369 3
a 369 339 3
a 339 340 4
a 340 339 4
a 340 370 10
a 370 340 10
a 340 341 3
a 341 340 3
a 341 342 8
a 342 341 8
a 342 372 4
a 372 342 4
a 342 343 7
a 343 342 7
a 343 373 9
a 373 343 9
a 343 344 5
a 344 343 5
a 344 374 2
a 374 344 2
a 344 345 9
a 345 344 9
a 345 375 3
a 375 345 3
a 345 346 4
a 346 345 4
a 346 376 10
a 376 346 10
a 346 347 8
a 347 346 8
a 347 377 5
a 377 347 5
a 347 348 7
a 348 347 7
a 348 378 10
a 378 348 10
a 348 349 8
a 349 348 8
a 349 379 3
a 379 349 3
a 349 350 8
a 350 349 8
a 350 380 10
a 380 350 10
a 350 351 6
a 351 350 6
a 351 381 3
a 381 351 3
a 351 352 5
a 352 351 5
a 352 382 6
a 382 352 6
a 354 384 3
a 384 354 3
a 354 355 3
a 355 354 3
a 355 385 1
a 385 355 1
a 355 356 7
a 356 355 7
a 356 386 1
a 386 356 1
a 356 357 10
a 357 356 10
a 357 358 9
a 358 357 9
a 358 388 3
a 388 358 3
a 358 359 3
a 359 358 3
a 359 389 6
a 389 359 6
a 359 360 5
a 360 359 5
a 360 390 8
a 390 360 8
a 361 391 5
a 391 361 5
a 361 362 1
a 362 361 1
a 362 392 6
a 392 362 6
a 362 363 5
a 363 362 5
a 363 393 4
a 393 363 4
a 363 364 10
a 364 363 10
a 364 394 8
a 394 364 8
a 364 365 8
a 365 364 8
a 365 366 4
a 366 365 4
a 366 396 2
a 396 366 2
a 366 367 10
a 367 366 10
a 367 397 2
a 397 367 2
a 367 368 2
a 368 367 2
a 368 398 3
a 398 368 3
a 368 369 8
a 369 368 8
a 369 399 2
a 399 369 2
a 369 370 10
a 370 369 10
a 370 400 10
a 400 370 10
a 372 402 5
a 402 372 5
a 372 373 6
a 373 372 6
a 373 403 10
a 403 373 10
a 373 374 1
a 374 373 1
a 374 404 4
a 404 374 4
a 374 375 6
a 375 374 6
a 375 405 10
a 405 375 10
a 375 376 9
a 376 375 9
a 376 406 10
a 406 376 10
a 376 377 4
a 377 376 4
a 377 407 6
a 407 377 6
a 377 378 5
a 378 377 5
a 378 408 6
a 408 378 6
a 378 379 5
a 379 378 5
a 379 409 9
a 409 379 9
a 379 380 3
a 380 379 3
a 380 410 1
a 410 380 1
a 380 381 6
a 381 380 6
a 381 411 7
a 411 381 7
a 381 382 10
a 382 381 10
a 382 412 6
a 412 382 6
a 382 383 5
a 383 382 5
a 383 413 5
a 413 383 5
a 383 384 1
a 384 383 1
a 384 414 5
a 414 384 5
a 384 385 10
a 385 384 10
a 385 415 3
a 415 385 3
a 385 386 2
a 386 385 2
a 386 416 5
a 416 386 5
a 388 418 7
a 418 388 7
a 388 389 4
a 389 388 4
a 389 390 1
a 390 389 1
a 390 420 10
a 420 390 10
a 391 421 4
a 421 391 4
a 391 392 5
a 392 391 5
a 392 422 6
a 422 392 6
a 392 393 8
a 393 392 8
a 393 423 10
a 423 393 10
a 393 394 2
a 394 393 2
a 394 424 4
a 424 394 4
a 396 426 9
a 426 396 9
a 396 397 3
a 397 396 3
a 397 427 8
a 427 397 8
a 397 398 8
a 398 397 8
a 398 428 2
a 428 398 2
a 398 399 6
a 399 398 6
a 399 400 10
a 400 399 10
a 400 401 6
a 401 400 6
a 401 431 10
a 431 401 10
a 401 402 3
a 402 401 3
a 402 432 9
a 432 402 9
a 402 403 6
a 403 402 6
a 403 433 10
a 433 403 10
a 403 404 4
a 404 403 4
a 404 434 9
a 434 404 9
a 404 405 10
a 405 404 10
a 405 435 1
a 435 405 1
a 405 406 5
a 406 405 5
a 406 436 1
a 436 406 1
a 406 407 2
a 407 406 2
a 407 437 7
a 437 407 7
a 407 408 3
a 408 407 3
a 408 438 9
a 438 408 9
a 408 409 9
a 409 408 9
a 409 439 9
a 439 409 9
a 409 410 6
a 410 409 6
a 410 440 2
a 440 410 2
a 410 411 8
a 411 410 8
a 411 441 8
a 441 411 8
a 411 412 3
a 412 411 3
a 412 442 10
a 442 412 10
a 412 413 6
a 413 412 6
a 413 443 7
a 443 413 7
a 413 414 6
a 414 413 6
a 414 444 7
a 444 414 7
a 414 415 8
a 415 414 8
a 415 445 9
a 445 415 9
a 415 416 6
a 416 415 6
a 416 446 8
a 446 416 8
a 416 417 10
a 417 416 10
a 417 447 1
a 447 417 1
a 417 418 10
a 418 417 10
a 418 448 8
a 448 418 8
a 420 450 2
a 450 420 2
a 421 451 9
a 451 421 9
a 421 422 6
a 422 421 6
a 422 452 7
a 452 422 7
a 422 423 10
a 423 422 10
a 423 453 9
a 453 423 9
a 423 424 8
a 424 423 8
a 424 454 1
a 454 424 1
a 424 425 10
a 425 424 10
a 425 455 3
a 455 425 3
a 425 426 4
a 426 425 4
a 426 456 3
a 456 426 3
a 426 427 1
a 427 426 1
a 427 457 8
a 457 427 8
a 427 428 4
a 428 427 4
a 428 458 7
a 458 428 7
a 431 461 8
a 461 431 8
a 431 432 9
a 432 431 9
a 432 462 5
a 462 432 5
a 432 433 7
a 433 432 7
a 433 463 8
a 463 433 8
a 433 434 6
a 434 433 6
a 434 464 9
a 464 434 9
a 434 435 5
a 435 434 5
a 435 465 1
a 465 435 1
a 435 436 9
a 436 435 9
a 436 466 10
a 466 436 10
a 436 437 2
a 437 436 2
a 437 467 5
a 467 437 5
a 437 438 4
a 438 437 4
a 438 468 6
a 468 438 6
a 438 439 4
a 439 438 4
a 439 440 7
a 440 439 7
a 440 470 7
a 470 440 7
a 440 441 7
a 441 440 7
a 441 442 4
a 442 441 4
a 442 472 9
a 472 442 9
a 442 443 1
a 443 442 1
a 443 473 9
a 473 443 9
a 443 444 1
a 444 443 1
a 444 445 1
a 445 444 1
a 445 475 3
a 475 445 3
a 445 446 8
a 446 445 8
a 446 476 1
a 476 446 1
a 446 447 3
a 447 446 3
a 447 477 1
a 477 447 1
a 447 448 5
a 448 447 5
a 448 478 3
a 478 448 3
a 448 449 3
a 449 448 3
a 449 479 8
a 479 449 8
a 449 450 1
a 450 449 1
a 450 480 4
a 480 450 4
a 451 481 6
a 481 451 6
a 451 452 5
a 452 451 5
a 452 482 3
a 482 452 3
a 452 453 2
a 453 452 2
a 453 483 3
a 483 453 3
a 453 454 4
a 454 453 4
a 454 484 10
a 484 454 10
a 454 455 9
a 455 454 9
a 455 485 10
a 485 455 10
a 455 456 1
a 456 455 1
a 456 486 9
a 486 456 9
a 456 457 2
a 457 456 2
a 457 487 7
a 487 457 7
a 457 458 8
a 458 457 8
a 458 488 6
a 488 458 6
a 458 459 10
a 459 458 10
a 459 489 4
a 489 459 4
a 459 460 9
a 460 459 9
a 460 490 1
a 490 460 1
a 460 461 6
a 461 460 6
a 461 462 7
a 462 461 7
a 462 492 4
a 492 462 4
a 462 463 10
a 463 462 10
a 463 464 10
a 464 463 10
a 464 494 6
a 494 464 6
a 464 465 6
a 465 464 6
a 465 495 10
a 495 465 10
a 465 466 1
a 466 465 1
a 466 496 4
a 496 466 4
a 466 467 9
a 467 466 9
a 467 497 7
a 497 467 7
a 467 468 3
a 468 467 3
a 468 498 9
a 498 468 9
a 470 500 2
a 500 470 2
a 472 502 10
a 502 472 10
a 472 473 10
a 473 472 10
a 473 503 7
a 503 473 7
a 475 505 5
a 505 475 5
a 475 476 5
a 476 475 5
a 476 506 5
a 506 476 5
a 476 477 8
a 477 476 8
a 477 478 3
a 478 477 3
a 478 479 5
a 479 478 5
a 479 509 7
a 509 479 7
a 479 480 5
a 480 479 5
a 480 510 6
a 510 480 6
a 481 482 4
a 482 481 4
a 482 483 6
a 483 482 6
a 483 513 9
a 513 483 9
a 483 484 7
a 484 483 7
a 484 485 2
a 485 484 2
a 485 515 6
a 515 485 6
a 485 486 9
a 486 485 9
a 486 516 9
a 516 486 9
a 486 487 3
a 487 486 3
a 487 488 2
a 488 487 2
a 488 518 3
a 518 488 3
a 488 489 6
a 489 488 6
a 489 519 6
a 519 489 6
a 489 490 7
a 490 489 7
a 490 520 8
a 520 490 8
a 492 522 9
a 522 492 9
a 494 524 4
a 524 494 4
a 494 495 7
a 495 494 7
a 495 525 9
a 525 495 9
a 495 496 2
a 496 495 2
a 496 526 1
a 526 496 1
a 496 497 4
a 497 496 4
a 497 527 3
a 527 497 3
a 497 498 1
a 498 497 1
a 498 528 7
a 528 498 7
a 498 499 7
a 499 498 7
a 499 529 6
a 529 499 6
a 499 500 4
a 500 499 4
a 500 530 3
a 530 500 3
a 500 501 2
a 501 500 2
a 501 531 7
a 531 501 7
a 501 502 7
a 502 501 7
a 502 532 8
a 532 502 8
a 502 503 3
a 503 502 3
a 503 533 7
a 533 503 7
a 503 504 4
a 504 503 4
a 504 534 2
a 534 504 2
a 504 505 10
a 505 504 10
a 505 535 5
a 535 505 5
a 505 506 5
a 506 505 5
a 506 536 5
a 536 506 5
a 509 539 3
a 539 509 3
a 509 510 5
a 510 509 5
a 513 543 1
a 543 513 1
a 515 545 4
a 545 515 4
a 515 516 2
a 516 515 2
a 516 546 6
a 546 516 6
a 518 548 8
a 548 518 8
a 518 519 10
a 519 518 10
a 519 520 1
a 520 519 1
a 520 550 2
a 550 520 2
a 520 521 3
a 521 520 3
a 521 551 5
a 551 521 5
a 521 522 7
a 522 521 7
a 522 552 9
a 552 522 9
a 522 523 9
a 523 522 9
a 523 553 6
a 553 523 6
a 523 524 3
a 524 523 3
a 524 554 6
a 554 524 6
a 524 525 10
a 525 524 10
a 525 555 6
a 555 525 6
a 525 526 5
a 526 525 5
a 526 556 3
a 556 526 3
a 526 527 7
a 527 526 7
a 527 557 8
a 557 527 8
a 527 528 5
a 528 527 5
a 528 558 8
a 558 528 8
a 528 529 5
a 529 528 5
a 529 559 1
a 559 529 1
a 529 530 9
a 530 529 9
a 530 560 8
a 560 530 8
a 530 531 4
a 531 530 4
a 531 561 4
a 561 531 4
a 531 532 1
a 532 531 1
a 532 562 2
a 562 532 2
a 532 533 9
a 533 532 9
a 533 563 4
a 563 533 4
a 533 534 5
a 534 533 5
a 534 564 7
a 564 534 7
a 534 535 6
a 535 534 6
a 535 565 6
a 565 535 6
a 535 536 5
a 536 535 5
a 536 566 6
a 566 536 6
a 536 537 10
a 537 536 10
a 537 567 9
a 567 537 9
a 537 538 8
a 538 537 8
a 538 568 7
a 568 538 7
a 538 539 2
a 539 538 2
a 539 569 10
a 569 539 10
a 541 571 1
a 571 541 1
a 541 542 4
a 542 541 4
a 542 572 5
a 572 542 5
a 542 543 10
a 543 542 10
a 543 573 6
a 573 543 6
a 543 544 9
a 544 543 9
a 544 574 7
a 574 544 7
a 544 545 5
a 545 544 5
a 545 575 10
a 575 545 10
a 545 546 6
a 546 545 6
a 546 576 3
a 576 546 3
a 546 547 5
a 547 546 5
a 547 577 6
a 577 547 6
a 547 548 7
a 548 547 7
a 548 578 4
a 578 548 4
a 550 580 7
a 580 550 7
a 550 551 9
a 551 550 9
a 551 581 10
a 581 551 10
a 551 552 6
a 552 551 6
a 552 582 5
a 582 552 5
a 552 553 3
a 553 552 3
a 553 583 1
a 583 553 1
a 553 554 5
a 554 553 5
a 554 584 1
a 584 554 1
a 554 555 8
a 555 554 8
a 555 556 4
a 556 555 4
a 556 586 4
a 586 556 4
a 556 557 8
a 557 556 8
a 557 587 9
a 587 557 9
a 557 558 4
a 558 557 4
a 558 588 3
a 588 558 3
a 558 559 3
a 559 558 3
a 559 589 10
a 589 559 10
a 559 560 6
a 560 559 6
a 560 590 10
a 590 560 10
a 560 561 1
a 561 560 1
a 561 591 3
a 591 561 3
a 561 562 4
a 562 561 4
a 562 592 9
a 592 562 9
a 562 563 4
a 563 562 4
a 563 593 3
a 593 563 3
a 563 564 9
a 564 563 9
a 564 594 7
a 594 564 7
a 564 565 8
a 565 564 8
a 565 595 9
a 595 565 9
a 565 566 10
a 566 565 10
a 566 596 9
a 596 566 9
a 566 567 5
a 567 566 5
a 567 597 3
a 597 567 3
a 567 568 3
a 568 567 3
a 568 598 4
a 598 568 4
a 568 569 5
a 569 568 5
a 569 599 10
a 599 569 10
a 569 570 8
a 570 569 8
a 571 601 5
a 601 571 5
a 571 572 3
a 572 571 3
a 572 602 2
a 602 572 2
a 572 573 4
a 573 572 4
a 573 603 8
a 603 573 8
a 573 574 4
a 574 573 4
a 574 604 3
a 604 574 3
a 574 575 8
a 575 574 8
a 575 576 5
a 576 575 5
a 576 606 1
a 606 576 1
a 576 577 4
a 577 576 4
a 577 607 3
a 607 577 3
a 577 578 10
a 578 577 10
a 578 608 10
a 608 578 10
a 578 579 10
a 579 578 10
a 579 580 5
a 580 579 5
a 580 610 8
a 610 580 8
a 580 581 3
a 581 580 3
a 581 611 9
a 611 581 9
a 581 582 8
a 582 581 8
a 582 612 2
a 612 582 2
a 582 583 9
a 583 582 9
a 583 584 1
a 584 583 1
a 584 614 7
a 614 584 7
a 586 616 3
a 616 586 3
a 586 587 8
a 587 586 8
a 587 617 2
a 617 587 2
a 587 588 2
a 588 587 2
a 588 618 8
a 618 588 8
a 588 589 2
a 589 588 2
a 589 619 3
a 619 589 3
a 589 590 10
a 590 589 10
a 590 620 3
a 620 590 3
a 590 591 6
a 591 590 6
a 591 621 7
a 621 591 7
a 591 592 8
a 592 591 8
a 592 593 10
a 593 592 10
a 593 594 6
a 594 593 6
a 594 624 8
a 624 594 8
a 594 595 5
a 595 594 5
a 595 625 4
a 625 595 4
a 595 596 5
a 596 595 5
a 596 626 8
a 626 596 8
a 596 597 8
a 597 596 8
a 597 627 2
a 627 597 2
a 597 598 3
a 598 597 3
a 598 628 7
a 628 598 7
a 598 599 8
a 599 598 8
a 599 629 8
a 629 599 8
a 601 631 10
a 631 601 10
a 601 602 3
a 602 601 3
a 602 603 2
a 603 602 2
a 603 633 8
a 633 603 8
a 603 604 10
a 604 603 10
a 604 634 3
a 634 604 3
a 606 636 8
a 636 606 8
a 606 607 8
a 607 606 8
a 607 637 5
a 637 607 5
a 607 608 5
a 608 607 5
a 610 640 3
a 640 610 3
a 610 611 4
a 611 610 4
a 611 641 6
a 641 611 6
a 611 612 7
a 612 611 7
a 612 642 10
a 642 612 10
a 614 615 1
a 615 614 1
a 615 645 8
a 645 615 8
a 615 616 3
a 616 615 3
a 616 646 5
a 646 616 5
a 616 617 8
a 617 616 8
a 617 647 1
a 647 617 1
a 617 618 7
a 618 617 7
a 618 648 2
a 648 618 2
a 618 619 1
a 619 618 1
a 619 649 1
a 649 619 1
a 619 620 2
a 620 619 2
a 620 650 4
a 650 620 4
a 620 621 3
a 621 620 3
a 621 651 10
a 651 621 10
a 624 654 8
a 654 624 8
a 624 625 4
a 625 624 4
a 625 655 6
a 655 625 6
a 625 626 10
a 626 625 10
a 626 656 2
a 656 626 2
a 626 627 5
a 627 626 5
a 627 628 6
a 628 627 6
a 628 658 4
a 658 628 4
a 628 629 6
a 629 628 6
a 629 659 5
a 659 629 5
a 629 630 1
a 630 629 1
a 630 660 4
a 660 630 4
a 631 661 3
a 661 631 3
a 633 663 7
a 663 633 7
a 633 634 3
a 634 633 3
a 634 664 6
a 664 634 6
a 634 635 3
a 635 634 3
a 635 665 7
a 665 635 7
a 635 636 10
a 636 635 10
a 636 666 2
a 666 636 2
a 636 637 4
a 637 636 4
a 637 667 4
a 667 637 4
a 639 669 2
a 669 639 2
a 639 640 5
a 640 639 5
a 640 670 8
a 670 640 8
a 640 641 4
a 641 640 4
a 641 671 9
a 671 641 9
a 641 642 3
a 642 641 3
a 642 672 8
a 672 642 8
a 642 643 9
a 643 642 9
a 643 673 7
a 673 643 7
a 645 675 2
a 675 645 2
a 645 646 4
a 646 645 4
a 646 676 8
a 676 646 8
a 646 647 6
a 647 646 6
a 647 677 4
a 677 647 4
a 647 648 1
a 648 647 1
a 648 649 10
a 649 648 10
a 649 679 3
a 679 649 3
a 649 650 5
a 650 649 5
a 650 680 8
a 680 650 8
a 650 651 1
a 651 650 1
a 651 681 3
a 681 651 3
a 651 652 7
a 652 651 7
a 652 682 3
a 682 652 3
a 652 653 7
a 653 652 7
a 653 654 7
a 654 653 7
a 654 684 1
a 684 654 1
a 654 655 6
a 655 654 6
a 655 685 2
a 685 655 2
a 655 656 2
a 656 655 2
a 656 686 10
a 686 656 10
a 658 688 1
a 688 658 1
a 658 659 2
a 659 658 2
a 659 689 8
a 689 659 8
a 659 660 3
a 660 659 3
a 660 690 4
a 690 660 4
a 661 691 7
a 691 661 7
a 661 662 4
a 662 661 4
a 662 692 8
a 692 662 8
a 662 663 9
a 663 662 9
a 663 693 6
a 693 663 6
a 663 664 5
a 664 663 5
a 664 694 7
a 694 664 7
a 664 665 9
a 665 664 9
a 665 695 3
a 695 665 3
a 665 666 9
a 666 665 9
a 666 696 10
a 696 666 10
a 666 667 8
a 667 666 8
a 667 697 2
a 697 667 2
a 667 668 10
a 668 667 10
a 668 698 6
a 698 668 6
a 668 669 9
a 669 668 9
a 669 699 5
a 699 669 5
a 669 670 4
a 670 669 4
a 670 700 6
a 700 670 6
a 670 671 1
a 671 670 1
a 671 701 9
a 701 671 9
a 671 672 9
a 672 671 9
a 672 673 2
a 673 672 2
a 673 703 8
a 703 673 8
a 673 674 9
a 674 673 9
a 674 704 9
a 704 674 9
a 674 675 9
a 675 674 9
a 675 705 5
a 705 675 5
a 675 676 10
a 676 675 10
a 676 706 9
a 706 676 9
a 676 677 7
a 677 676 7
a 677 707 2
a 707 677 2
a 679 709 10
a 709 679 10
a 679 680 4
a 680 679 4
a 680 710 6
a 710 680 6
a 680 681 3
a 681 680 3
a 681 711 1
a 711 681 1
a 681 682 10
a 682 681 10
a 682 712 9
a 712 682 9
a 684 714 6
a 714 684 6
a 684 685 2
a 685 684 2
a 685 715 4
a 715 685 4
a 685 686 7
a 686 685 7
a 686 716 6
a 716 686 6
a 686 687 2
a 687 686 2
a 687 688 8
a 688 687 8
a 688 718 5
a 718 688 5
a 688 689 4
a 689 688 4
a 689 719 10
a 719 689 10
a 689 690 6
a 690 689 6
a 690 720 3
a 720 690 3
a 691 721 1
a 721 691 1
a 691 692 7
a 692 691 7
a 692 722 8
a 722 692 8
a 692 693 3
a 693 692 3
a 693 723 8
a 723 693 8
a 693 694 8
a 694 693 8
a 694 724 8
a 724 694 8
a 694 695 2
a 695 694 2
a 695 725 3
a 725 695 3
a 695 696 6
a 696 695 6
a 696 726 8
a 726 696 8
a 696 697 3
a 697 696 3
a 697 727 9
a 727 697 9
a 697 698 7
a 698 697 7
a 698 728 6
a 728 698 6
a 698 699 6
a 699 698 6
a 699 729 3
a 729 699 3
a 699 700 5
a 700 699 5
a 700 730 1
a 730 700 1
a 700 701 10
a 701 700 10
a 701 731 1
a 731 701 1
a 703 733 7
a 733 703 7
a 703 704 2
a 704 703 2
a 704 705 3
a 705 704 3
a 705 735 7
a 735 705 7
a 705 706 6
a 706 705 6
a 706 736 1
a 736 706 1
a 706 707 2
a 707 706 2
a 707 737 10
a 737 707 10
a 707 708 8
a 708 707 8
a 708 738 3
a 738 708 3
a 708 709 6
a 709 708 6
a 709 739 7
a 739 709 7
a 709 710 2
a 710 709 2
a 710 740 7
a 740 710 7
a 710 711 10
a 711 710 10
a 711 741 9
a 741 711 9
a 711 712 3
a 712 711 3
a 712 742 1
a 742 712 1
a 712 713 2
a 713 712 2
a 713 743 9
a 743 713 9
a 713 714 9
a 714 713 9
a 714 744 6
a 744 714 6
a 714 715 1
a 715 714 1
a 715 745 3
a 745 715 3
a 715 716 10
a 716 715 10
a 716 746 10
a 746 716 10
a 718 748 9
a 748 718 9
a 718 719 4
a 719 718 4
a 719 749 4
a 749 719 4
a 719 720 7
a 720 719 7
a 720 750 10
a 750 720 10
a 721 751 8
a 751 721 8
a 721 722 2
a 722 721 2
a 722 752 4
a 752 722 4
a 722 723 8
a 723 722 8
a 723 753 6
a 753 723 6
a 723 724 8
a 724 723 8
a 724 754 5
a 754 724 5
a 724 725 9
a 725 724 9
a 725 726 2
a 726 725 2
a 726 756 2
a 756 726 2
a 726 727 7
a 727 726 7
a 727 757 3
a 757 727 3
a 727 728 9
a 728 727 9
a 728 758 8
a 758 728 8
a 728 729 6
a 729 728 6
a 729 759 10
a 759 729 10
a 729 730 9
a 730 729 9
a 730 731 9
a 731 730 9
a 731 761 6
a 761 731 6
a 731 732 5
a 732 731 5
a 732 762 2
a 762 732 2
a 732 733 5
a 733 732 5
a 733 763 10
a 763 733 10
a 735 765 8
a 765 735 8
a 735 736 2
a 736 735 2
a 736 766 2
a 766 736 2
a 736 737 3
a 737 736 3
a 737 767 3
a 767 737 3
a 737 738 9
a 738 737 9
a 738 768 10
a 768 738 10
a 738 739 6
a 739 738 6
a 739 769 1
a 769 739 1
a 739 740 3
a 740 739 3
a 740 770 2
a 770 740 2
a 740 741 8
a 741 740 8
a 741 771 2
a 771 741 2
a 741 742 10
a 742 741 10
a 742 772 9
a 772 742 9
a 742 743 1
a 743 742 1
a 743 773 9
a 773 743 9
a 743 744 3
a 744 743 3
a 744 774 4
a 774 744 4
a 744 745 8
a 745 744 8
a 745 775 1
a 775 745 1
a 745 746 5
a 746 745 5
a 746 776 4
a 776 746 4
a 748 778 4
a 778 748 4
a 748 749 8
a 749 748 8
a 749 779 4
a 779 749 4
a 749 750 7
a 750 749 7
a 751 781 8
a 781 751 8
a 751 752 4
a 752 751 4
a 752 782 3
a 782 752 3
a 752 753 6
a 753 752 6
a 753 754 2
a 754 753 2
a 756 786 2
a 786 756 2
a 756 757 2
a 757 756 2
a 757 787 3
a 787 757 3
a 757 758 7
a 758 757 7
a 758 788 4
a 788 758 4
a 758 759 6
a 759 758 6
a 759 789 2
a 789 759 2
a 761 762 8
a 762 761 8
a 762 792 1
a 792 762 1
a 762 763 9
a 763 762 9
a 763 793 5
a 793 763 5
a 763 764 6
a 764 763 6
a 764 794 4
a 794 764 4
a 764 765 3
a 765 764 3
a 765 766 7
a 766 765 7
a 766 796 2
a 796 766 2
a 766 767 3
a 767 766 3
a 767 797 3
a 797 767 3
a 767 768 3
a 768 767 3
a 768 798 6
a 798 768 6
a 768 769 3
a 769 768 3
a 769 799 9
a 799 769 9
a 769 770 8
a 770 769 8
a 770 800 7
a 800 770 7
a 770 771 1
a 771 770 1
a 771 772 1
a 772 771 1
a 772 802 9
a 802 772 9
a 772 773 3
a 773 772 3
a 773 803 6
a 803 773 6
a 773 774 8
a 774 773 8
a 774 775 5
a 775 774 5
a 775 805 6
a 805 775 6
a 775 776 1
a 776 775 1
a 776 806 9
a 806 776 9
a 776 777 8
a 777 776 8
a 777 807 8
a 807 777 8
a 777 778 1
a 778 777 1
a 778 808 6
a 808 778 6
a 778 779 3
a 779 778 3
a 779 809 7
a 809 779 7
a 781 811 7
a 811 781 7
a 781 782 4
a 782 781 4
a 782 812 3
a 812 782 3
a 785 815 9
a 815 785 9
a 785 786 5
a 786 785 5
a 786 816 4
a 816 786 4
a 786 787 7
a 787 786 7
a 787 817 8
a 817 787 8
a 787 788 9
a 788 787 9
a 788 818 2
a 818 788 2
a 788 789 6
a 789 788 6
a 789 819 5
a 819 789 5
a 789 790 7
a 790 789 7
a 790 820 4
a 820 790 4
a 792 822 10
a 822 792 10
a 792 793 6
a 793 792 6
a 793 823 8
a 823 793 8
a 793 794 8
a 794 793 8
a 796 826 7
a 826 796 7
a 796 797 3
a 797 796 3
a 797 827 8
a 827 797 8
a 797 798 3
a 798 797 3
a 798 828 4
a 828 798 4
a 798 799 3
a 799 798 3
a 799 829 9
a 829 799 9
a 799 800 4
a 800 799 4
a 800 830 3
a 830 800 3
a 802 832 7
a 832 802 7
a 802 803 7
a 803 802 7
a 803 833 3
a 833 803 3
a 805 835 2
a 835 805 2
a 805 806 5
a 806 805 5
a 806 836 2
a 836 806 2
a 806 807 7
a 807 806 7
a 807 837 3
a 837 807 3
a 807 808 3
a 808 807 3
a 808 838 9
a 838 808 9
a 808 809 6
a 809 808 6
a 809 839 5
a 839 809 5
a 809 810 8
a 810 809 8
a 810 840 8
a 840 810 8
a 811 812 2
a 812 811 2
a 812 842 1
a 842 812 1
a 812 813 6
a 813 812 6
a 813 843 9
a 843 813 9
a 813 814 7
a 814 813 7
a 814 844 3
a 844 814 3
a 814 815 2
a 815 814 2
a 815 845 10
a 845 815 10
a 815 816 6
a 816 815 6
a 816 846 9
a 846 816 9
a 816 817 6
a 817 816 6
a 817 847 9
a 847 817 9
a 817 818 7
a 818 817 7
a 818 848 7
a 848 818 7
a 818 819 5
a 819 818 5
a 819 849 10
a 849 819 10
a 819 820 1
a 820 819 1
a 820 850 10
a 850 820 10
a 820 821 8
a 821 820 8
a 821 851 9
a 851 821 9
a 821 822 9
a 822 821 9
a 822 852 1
a 852 822 1
a 822 823 7
a 823 822 7
a 823 853 2
a 853 823 2
a 826 856 10
a 856 826 10
a 826 827 2
a 827 826 2
a 827 857 5
a 857 827 5
a 827 828 8
a 828 827 8
a 828 858 2
a 858 828 2
a 828 829 3
a 829 828 3
a 829 859 1
a 859 829 1
a 829 830 8
a 830 829 8
a 830 831 7
a 831 830 7
a 831 861 6
a 861 831 6
a 831 832 9
a 832 831 9
a 832 862 7
a 862 832 7
a 832 833 1
a 833 832 1
a 833 863 8
a 863 833 8
a 835 836 10
a 836 835 10
a 836 866 3
a 866 836 3
a 836 837 9
a 837 836 9
a 837 867 5
a 867 837 5
a 837 838 3
a 838 837 3
a 838 868 3
a 868 838 3
a 838 839 7
a 839 838 7
a 839 840 6
a 840 839 6
a 840 870 5
a 870 840 5
a 842 872 9
a 872 842 9
a 842 843 4
a 843 842 4
a 843 873 2
a 873 843 2
a 843 844 3
a 844 843 3
a 844 874 1
a 874 844 1
a 844 845 9
a 845 844 9
a 845 875 4
a 875 845 4
a 845 846 3
a 846 845 3
a 846 876 4
a 876 846 4
a 846 847 7
a 847 846 7
a 847 877 8
a 877 847 8
a 847 848 2
a 848 847 2
a 848 878 3
a 878 848 3
a 848 849 10
a 849 848 10
a 849 879 2
a 879 849 2
a 849 850 8
a 850 849 8
a 850 880 7
a 880 850 7
a 850 851 4
a 851 850 4
a 851 881 6
a 881 851 6
a 851 852 3
a 852 851 3
a 852 882 8
a 882 852 8
a 852 853 9
a 853 852 9
a 853 883 6
a 883 853 6
a 853 854 4
a 854 853 4
a 854 884 4
a 884 854 4
a 854 855 2
a 855 854 2
a 855 885 2
a 885 855 2
a 855 856 9
a 856 855 9
a 856 886 3
a 886 856 3
a 856 857 5
a 857 856 5
a 857 887 5
a 887 857 5
a 857 858 5
a 858 857 5
a 858 888 7
a 888 858 7
a 858 859 5
a 859 858 5
a 859 889 5
a 889 859 5
a 861 891 5
a 891 861 5
a 861 862 6
a 862 861 6
a 862 892 10
a 892 862 10
a 862 863 4
a 863 862 4
a 863 893 5
a 893 863 5
a 863 864 2
a 864 863 2
a 864 894 10
a 894 864 10
a 866 867 4
a 867 866 4
a 867 897 2
a 897 867 2
a 867 868 1
a 868 867 1
a 868 898 6
a 898 868 6
a 870 900 7
a 900 870 7
a 872 873 4
a 873 872 4
a 873 874 9
a 874 873 9
a 874 875 6
a 875 874 6
a 875 876 3
a 876 875 3
a 876 877 2
a 877 876 2
a 877 878 1
a 878 877 1
a 878 879 9
a 879 878 9
a 879 880 2
a 880 879 2
a 880 881 2
a 881 880 2
a 881 882 7
a 882 881 7
a 882 883 10
a 883 882 10
a 883 884 3
a 884 883 3
a 884 885 6
a 885 884 6
a 885 886 3
a 886 885 3
a 886 887 1
a 887 886 1
a 887 888 10
a 888 887 10
a 888 889 6
a 889 888 6
a 889 890 8
a 890 889 8
a 890 891 4
a 891 890 4
a 891 892 8
a 892 891 8
a 892 893 8
a 893 892 8
a 893 894 8
a 894 893 8
a 894 895 10
a 895 894 10
a 897 898 7
a 898 897 7
a 898 899 5
a 899 898 5
a 899 900 4
a 900 899 4
